
List of user-set options:

                                    Name   Value                used
                           compl_inf_tol = 1                     yes
                         constr_viol_tol = 1                     yes
                            dual_inf_tol = 1000                  yes
                           linear_solver = ma97                  yes
                              ma86_small = 1e-30                  no
                                  ma86_u = 0.0001                 no
                              ma97_order = best                  yes
                              ma97_small = 1e-30                 yes
                            ma97_switch1 = at_start              yes
                            ma97_switch2 = od_hd_reuse           yes
                                  ma97_u = 1e-06                 yes
                               ma97_umax = 0.5                   yes
                                max_iter = 2000                  yes
                    max_refinement_steps = 20                    yes
                    min_refinement_steps = 5                     yes
                                 mu_init = 1e-06                 yes
           mu_superlinear_decrease_power = 1.25                  yes
                   nlp_scaling_min_value = 1e-08                 yes
                        option_file_name = Preset_Case:_116_NCP.opt  yes
                             output_file = ./tmp/Preset_Case:_116_NCP.output  yes
                      print_user_options = yes                   yes
        required_infeasibility_reduction = 1                      no
                                     tol = 1e-08                 yes
                   warm_start_bound_frac = 1e-20                 yes
                   warm_start_bound_push = 1e-20                 yes
                   warm_start_init_point = yes                   yes
              warm_start_mult_bound_push = 1e-20                 yes
                warm_start_mult_init_max = 1e+40                 yes
             warm_start_slack_bound_frac = 1e-20                 yes
             warm_start_slack_bound_push = 1e-20                 yes

******************************************************************************
This program contains Ipopt, a library for large-scale nonlinear optimization.
 Ipopt is released as open source code under the Eclipse Public License (EPL).
         For more information visit http://projects.coin-or.org/Ipopt
******************************************************************************

This is Ipopt version 3.12.10, running with linear solver ma97.

Number of nonzeros in equality constraint Jacobian...:   117140
Number of nonzeros in inequality constraint Jacobian.:      213
Number of nonzeros in Lagrangian Hessian.............:    47462

Total number of variables............................:    29971
                     variables with only lower bounds:    11312
                variables with lower and upper bounds:    15132
                     variables with only upper bounds:        0
Total number of equality constraints.................:    29864
Total number of inequality constraints...............:       25
        inequality constraints with only lower bounds:        4
   inequality constraints with lower and upper bounds:        0
        inequality constraints with only upper bounds:       21

iter    objective    inf_pr   inf_du lg(mu)  ||d||  lg(rg) alpha_du alpha_pr  ls
   0 -4.6784739e-02 2.99e-01 1.00e+00  -6.0 0.00e+00    -  0.00e+00 0.00e+00   0
In iteration 0, 2 Slacks too small, adjusting variable bounds
   1 -4.6784739e-02 2.99e-01 7.08e+03  -6.0 5.03e+07  -4.0 5.46e-09 1.11e-17f  1
   2 -4.6929471e-02 2.98e-01 7.07e+03  -6.0 9.42e+02  -4.5 4.38e-04 4.85e-03f  1
   3 -4.6966514e-02 2.97e-01 7.07e+03  -6.0 5.02e+02  -5.0 6.67e-04 1.48e-03f  1
   4 -4.6972854e-02 2.97e-01 7.06e+03  -6.0 7.22e+02  -5.4 1.66e-03 5.57e-04f  1
   5 -4.6985980e-02 2.97e-01 7.06e+03  -6.0 4.64e+02  -5.0 1.36e-06 3.78e-04f  1
   6 -4.6985496e-02 2.97e-01 7.06e+03  -6.0 4.83e+03  -5.5 2.45e-09 6.28e-06f  2
   7 -4.6986525e-02 2.97e-01 7.06e+03  -6.0 2.35e+02  -4.2 1.15e-04 3.89e-05h  1
   8 -4.6985986e-02 2.97e-01 7.05e+03  -6.0 6.96e+02  -4.6 5.67e-04 2.75e-05h  1
   9 -4.6993591e-02 2.97e-01 7.02e+03  -6.0 8.03e+02  -5.1 4.68e-03 1.63e-04f  1
iter    objective    inf_pr   inf_du lg(mu)  ||d||  lg(rg) alpha_du alpha_pr  ls
  10 -4.7309765e-02 2.95e-01 6.98e+03  -6.0 9.15e+02  -5.6 4.93e-03 6.67e-03f  1
  11 -4.7394927e-02 2.95e-01 6.91e+03  -6.0 8.99e+02  -6.1 1.12e-02 3.84e-03h  1
  12 -4.7382076e-02 2.95e-01 6.89e+03  -6.0 1.76e+03  -6.5 2.15e-03 1.26e-04h  6
  13r-4.7382076e-02 2.95e-01 1.00e+03  -0.5 0.00e+00  -5.2 0.00e+00 4.61e-07R  5
  14r-4.7389434e-02 2.95e-01 2.93e+03  -0.5 1.64e+04    -  5.21e-08 1.50e-07f  1
  15r-4.7410943e-02 2.95e-01 2.99e+03  -0.5 1.28e+04    -  1.67e-06 4.81e-07f  1
  16r-4.7478572e-02 2.95e-01 2.91e+03  -0.5 6.26e+03    -  7.51e-07 2.56e-06f  1
  17r-4.7815506e-02 2.94e-01 2.83e+03  -0.5 4.82e+03    -  1.37e-05 1.56e-05f  1
  18 -5.1334974e-02 5.97e+00 5.36e+02  -6.0 2.06e+06    -  1.12e-03 1.13e-03h  1
  19 -5.1909660e-02 5.97e+00 9.04e+03  -6.0 1.18e+07    -  3.94e-04 1.45e-04h  1
iter    objective    inf_pr   inf_du lg(mu)  ||d||  lg(rg) alpha_du alpha_pr  ls
  20 -5.3426577e-02 6.04e+00 1.36e+04  -6.0 5.67e+06    -  6.29e-04 4.72e-04f  1
  21 -5.3763332e-02 6.04e+00 2.58e+04  -6.0 5.15e+06    -  8.49e-04 1.66e-04f  1
  22 -5.4051726e-02 1.40e+01 2.51e+04  -6.0 3.77e+07    -  5.60e-05 1.19e-04h  1
  23 -5.4874688e-02 1.40e+01 2.20e+04  -6.0 3.94e+06    -  2.16e-04 5.37e-04h  1
  24 -5.4893326e-02 1.40e+01 3.77e+04  -6.0 3.27e+02  -5.7 2.55e-03 6.26e-04h  1
  25 -5.5101915e-02 1.39e+01 3.76e+04  -6.0 3.70e+02  -6.2 2.36e-03 8.32e-03f  1
  26 -5.5183775e-02 1.39e+01 3.74e+04  -6.0 4.26e+02  -6.6 9.58e-03 3.55e-03h  1
  27 -5.6287466e-02 1.33e+01 3.62e+04  -6.0 1.75e+03  -7.1 2.25e-02 3.24e-02h  1
  28 -5.7661000e-02 1.30e+01 3.57e+04  -6.0 1.41e+03  -7.6 1.48e-03 1.38e-02h  1
  29 -5.7664038e-02 1.30e+01 3.57e+04  -6.0 2.97e+02  -4.5 7.26e-03 5.57e-05h  1
iter    objective    inf_pr   inf_du lg(mu)  ||d||  lg(rg) alpha_du alpha_pr  ls
  30 -5.7847734e-02 1.29e+01 3.56e+04  -6.0 5.10e+02  -4.9 2.42e-03 2.64e-03f  1
  31 -5.9310286e-02 1.25e+01 3.46e+04  -6.0 6.50e+02  -5.4 5.64e-03 2.94e-02h  1
  32 -5.9288276e-02 1.25e+01 3.44e+04  -6.0 7.67e+02  -5.9 2.45e-02 5.66e-03h  1
  33 -5.9408433e-02 1.23e+01 3.40e+04  -6.0 8.38e+02  -6.4 1.83e-01 1.08e-02h  1
  34 -5.9228859e-02 1.15e+01 3.19e+04  -6.0 8.42e+02  -6.8 3.68e-02 6.25e-02h  1
  35 -5.8881651e-02 1.12e+01 3.10e+04  -6.0 9.66e+02  -7.3 1.06e-01 2.86e-02h  2
  36 -5.9024867e-02 1.11e+01 3.06e+04  -6.0 6.57e+02  -6.0 4.64e-02 1.02e-02h  1
  37 -5.8957352e-02 1.08e+01 2.99e+04  -6.0 6.98e+02  -6.5 3.43e-01 2.45e-02h  3
  38 -5.8736274e-02 1.05e+01 2.91e+04  -6.0 7.59e+02  -6.9 8.45e-02 2.64e-02h  2
  39 -5.8627374e-02 1.03e+01 2.84e+04  -6.0 8.45e+02  -7.4 2.79e-01 2.26e-02h  2
iter    objective    inf_pr   inf_du lg(mu)  ||d||  lg(rg) alpha_du alpha_pr  ls
  40 -5.7880412e-02 9.96e+00 2.75e+04  -6.0 6.97e+02  -7.0 3.96e-02 3.19e-02h  1
  41 -5.7266667e-02 9.47e+00 2.62e+04  -6.0 5.78e+02  -6.6 5.66e-02 4.95e-02h  2
  42 -5.6987704e-02 9.44e+00 2.61e+04  -6.0 1.53e+03  -7.1 1.12e-02 3.84e-03h  1
  43 -5.6940448e-02 9.42e+00 2.60e+04  -6.0 5.55e+02  -6.6 1.83e-01 2.09e-03h  7
  44 -5.6925472e-02 9.38e+00 2.59e+04  -6.0 4.60e+02  -6.2 2.83e-02 3.65e-03h  5
  45 -5.6918450e-02 9.38e+00 2.59e+04  -6.0 5.54e+02  -6.7 7.03e-02 2.37e-04h  8
  46 -5.6916513e-02 9.38e+00 2.59e+04  -6.0 4.68e+02  -6.2 1.61e-02 4.88e-04h  8
  47 -5.6915098e-02 9.38e+00 2.59e+04  -6.0 5.73e+02  -6.7 1.05e-01 4.12e-05h 10
  48 -5.6359281e-02 9.37e+00 2.59e+04  -6.0 1.43e+04  -7.2 1.25e-03 4.38e-04h  1
  49 -5.3626532e-02 8.71e+00 2.45e+04  -6.0 7.62e+02  -6.8 2.42e-02 5.43e-02h  1
iter    objective    inf_pr   inf_du lg(mu)  ||d||  lg(rg) alpha_du alpha_pr  ls
  50 -5.2783370e-02 7.99e+00 2.24e+04  -6.0 3.75e+02  -6.4 6.07e-02 8.45e-02h  1
  51 -5.2686909e-02 7.96e+00 2.23e+04  -6.0 1.34e+03  -6.8 4.54e-02 4.55e-03h  1
  52 -5.1035182e-02 6.92e+00 1.94e+04  -6.0 3.25e+02  -6.4 5.03e-02 1.31e-01h  1
  53 -5.0443236e-02 6.76e+00 1.89e+04  -6.0 5.04e+02  -6.0 3.43e-02 2.37e-02h  1
  54 -5.0015752e-02 6.70e+00 1.88e+04  -6.0 1.38e+03  -6.5 3.11e-06 4.15e-03h  1
  55 -4.9944016e-02 6.68e+00 1.88e+04  -6.0 4.51e+02  -6.0 3.01e-05 2.54e-03h  1
  56 -4.9941388e-02 6.68e+00 1.88e+04  -6.0 6.04e+03  -5.6 6.72e-05 1.52e-05f  2
  57 -4.9913628e-02 6.67e+00 1.88e+04  -6.0 4.05e+02  -5.2 4.13e-02 1.79e-03h  1
  58 -4.9921208e-02 6.66e+00 1.87e+04  -6.0 3.41e+02  -5.7 3.28e-02 1.47e-03h  1
  59 -4.9905118e-02 6.65e+00 1.87e+04  -6.0 4.16e+02  -5.2 4.75e-04 5.41e-04h  1
iter    objective    inf_pr   inf_du lg(mu)  ||d||  lg(rg) alpha_du alpha_pr  ls
  60 -4.9890765e-02 6.64e+00 1.87e+04  -6.0 2.94e+02  -4.8 3.60e-03 2.48e-03h  1
  61 -4.9890793e-02 6.64e+00 1.23e+05  -6.0 8.83e+01  -2.6 1.03e-02 1.22e-05h  1
  62 -4.9891658e-02 6.63e+00 4.98e+05  -6.0 1.62e+02  -3.0 4.05e-02 2.31e-04h  1
  63 -4.9891256e-02 6.61e+00 5.13e+05  -6.0 3.09e+02  -3.5 7.48e-03 4.02e-03h  1
  64 -4.9889578e-02 6.50e+00 5.05e+05  -6.0 3.21e+02  -4.0 1.63e-02 1.61e-02h  1
  65 -4.9904547e-02 6.37e+00 5.09e+05  -6.0 3.14e+02  -4.5 5.79e-02 2.00e-02h  1
  66 -4.9290860e-02 6.18e+00 4.94e+05  -6.0 3.18e+02  -5.0 3.40e-03 2.86e-02h  3
  67 -4.9285572e-02 6.18e+00 4.75e+05  -6.0 2.28e+03  -5.4 3.07e-02 6.94e-05h  2
  68 -4.9218289e-02 6.16e+00 4.73e+05  -6.0 2.34e+02  -5.0 2.32e-04 3.63e-03h  1
  69r-4.9218289e-02 6.16e+00 1.00e+03  -0.1 0.00e+00  -5.5 0.00e+00 4.23e-07R  4
iter    objective    inf_pr   inf_du lg(mu)  ||d||  lg(rg) alpha_du alpha_pr  ls
  70r-4.9151674e-02 6.16e+00 3.49e+03  -0.1 9.03e+03    -  2.51e-06 1.33e-06f  1
  71 -4.9150420e-02 6.16e+00 2.63e+03  -6.0 1.10e+02    -  1.87e-04 1.26e-04h  1
  72 -4.9149397e-02 6.16e+00 1.87e+03  -6.0 9.78e+01    -  1.30e-04 1.18e-04h  1
  73 -4.9148735e-02 6.16e+00 3.18e+04  -6.0 1.88e+02    -  3.53e-03 4.95e-05h  1
  74 -4.9145632e-02 6.16e+00 3.30e+04  -6.0 1.72e+02    -  3.20e-04 2.06e-04h  1
  75 -4.9144881e-02 6.16e+00 9.77e+04  -6.0 2.14e+02    -  3.92e-03 2.15e-04h  1
  76 -4.9129825e-02 6.13e+00 4.00e+04  -6.0 2.15e+02    -  8.23e-04 4.07e-03h  1
  77 -4.9126822e-02 6.13e+00 2.26e+06  -6.0 2.19e+02    -  1.22e-01 7.60e-04h  1
  78 -4.9114983e-02 6.12e+00 2.32e+06  -6.0 3.07e+02    -  5.77e-03 1.29e-03h  1
  79 -4.9046183e-02 6.08e+00 2.92e+06  -6.0 3.20e+02    -  4.70e-02 6.94e-03h  1
iter    objective    inf_pr   inf_du lg(mu)  ||d||  lg(rg) alpha_du alpha_pr  ls
  80 -4.8546552e-02 5.78e+00 2.32e+06  -6.0 3.32e+02    -  1.60e-02 4.70e-02h  1
  81 -4.7792056e-02 5.36e+00 9.50e+05  -6.0 3.20e+02    -  1.03e-02 7.05e-02h  1
  82 -4.7278685e-02 5.13e+00 3.95e+06  -6.0 3.00e+02    -  1.28e-01 4.01e-02h  1
  83 -4.5984183e-02 4.77e+00 2.44e+06  -6.0 6.65e+02    -  2.81e-02 5.15e-02h  1
  84 -4.5228984e-02 4.59e+00 3.58e+06  -6.0 5.36e+02    -  5.66e-02 3.30e-02h  1
  85r-4.5228984e-02 4.59e+00 1.00e+03  -0.2 0.00e+00    -  0.00e+00 1.07e-07R  2
  86r-4.5242469e-02 4.59e+00 5.24e+03  -0.2 6.92e+03    -  3.99e-07 1.93e-06f  1
  87 -4.5241733e-02 4.59e+00 1.29e+03  -6.0 1.30e+02    -  6.89e-05 5.53e-05h  1
  88 -4.5240878e-02 4.59e+00 2.80e+03  -6.0 1.19e+02    -  5.73e-05 7.05e-05h  1
  89 -4.5238948e-02 4.59e+00 1.45e+04  -6.0 3.01e+02    -  3.92e-04 6.26e-05h  1
iter    objective    inf_pr   inf_du lg(mu)  ||d||  lg(rg) alpha_du alpha_pr  ls
  90 -4.5236197e-02 4.59e+00 2.31e+04  -6.0 2.87e+02    -  2.81e-04 9.09e-05h  1
  91 -4.5234699e-02 4.59e+00 3.00e+04  -6.0 2.89e+02    -  2.01e-04 4.96e-05h  1
  92 -4.5234326e-02 4.59e+00 1.55e+05  -6.0 2.95e+02    -  2.59e-03 1.27e-05h  1
  93 -4.5233960e-02 4.59e+00 1.94e+05  -6.0 5.00e+02    -  5.18e-04 2.75e-05h  1
  94 -4.5200814e-02 4.58e+00 5.59e+04  -6.0 5.16e+02    -  5.14e-05 2.04e-03h  1
  95 -4.5198257e-02 4.57e+00 4.45e+06  -6.0 5.16e+02    -  5.37e-02 1.59e-04h  1
  96 -4.4853028e-02 4.47e+00 3.02e+06  -6.0 5.12e+02    -  2.48e-03 2.08e-02h  1
  97 -4.4354611e-02 4.33e+00 5.33e+06  -6.0 5.05e+02    -  6.10e-02 2.94e-02h  1
  98r-4.4354611e-02 4.33e+00 1.00e+03  -0.3 0.00e+00    -  0.00e+00 1.30e-07R  2
  99r-4.4354641e-02 4.33e+00 1.04e+03  -0.3 8.93e+03    -  8.63e-07 6.67e-09f  2
iter    objective    inf_pr   inf_du lg(mu)  ||d||  lg(rg) alpha_du alpha_pr  ls
 100r-4.4354641e-02 4.33e+00 9.99e+02  -0.3 0.00e+00    -  0.00e+00 2.87e-07R  2
 101r-4.4354579e-02 4.33e+00 1.31e+04  -0.3 9.49e+03    -  6.45e-06 2.15e-08f  1
 102 -4.4354075e-02 4.33e+00 1.36e+03  -6.0 5.65e+01    -  1.39e-04 3.51e-04h  1
 103 -4.4352790e-02 4.32e+00 5.00e+01  -6.0 5.47e+01    -  4.12e-04 1.06e-03h  1
 104 -4.4349937e-02 4.32e+00 9.64e+04  -6.0 2.72e+02    -  2.01e-03 1.32e-04h  1
 105 -4.4343630e-02 4.32e+00 1.91e+05  -6.0 2.59e+02    -  2.23e-03 3.02e-04h  1
 106 -4.4339662e-02 4.32e+00 2.30e+05  -6.0 2.57e+02    -  1.00e-03 1.90e-04h  1
 107 -4.4337878e-02 4.32e+00 9.29e+05  -6.0 2.39e+02    -  1.35e-02 8.32e-05h  1
 108 -4.4319078e-02 4.32e+00 1.21e+06  -6.0 2.14e+02    -  6.75e-03 7.53e-04h  1
 109 -4.4241346e-02 4.29e+00 9.11e+05  -6.0 5.15e+02    -  4.22e-03 7.47e-03h  1
iter    objective    inf_pr   inf_du lg(mu)  ||d||  lg(rg) alpha_du alpha_pr  ls
 110 -4.4196110e-02 4.27e+00 1.85e+06  -6.0 5.19e+02    -  1.47e-02 4.27e-03h  1
 111 -4.3869584e-02 4.13e+00 1.11e+06  -6.0 5.21e+02    -  2.27e-02 3.04e-02h  1
 112 -4.3275725e-02 3.90e+00 5.40e+06  -6.0 5.15e+02    -  9.86e-02 5.17e-02h  1
 113 -4.2941556e-02 3.77e+00 5.56e+06  -6.0 4.95e+02    -  3.42e-02 3.04e-02h  1
 114 -4.3030490e-02 3.73e+00 1.70e+07  -6.0 4.99e+02    -  1.52e-01 1.17e-02h  1
 115 -4.3173891e-02 3.66e+00 2.35e+07  -6.0 5.76e+02    -  1.13e-01 1.69e-02h  1
 116 -4.3383719e-02 3.58e+00 3.34e+07  -6.0 6.25e+02    -  2.00e-01 2.30e-02h  4
 117 -4.3789704e-02 3.44e+00 3.62e+07  -6.0 7.05e+02    -  1.41e-01 3.79e-02h  3
 118 -4.4143210e-02 3.34e+00 4.31e+07  -6.0 7.44e+02    -  2.92e-01 2.85e-02h  3
 119 -4.4649229e-02 3.22e+00 4.44e+07  -6.0 9.97e+02    -  2.34e-01 3.47e-02h  2
iter    objective    inf_pr   inf_du lg(mu)  ||d||  lg(rg) alpha_du alpha_pr  ls
 120 -4.4951995e-02 3.16e+00 4.41e+07  -6.0 1.16e+03    -  9.56e-02 1.93e-02h  2
 121 -4.5325083e-02 3.09e+00 4.29e+07  -6.0 1.23e+03    -  2.72e-07 2.18e-02h  1
 122 -4.5334738e-02 3.08e+00 4.41e+07  -6.0 1.31e+03    -  7.06e-02 1.49e-03h  1
 123 -4.5566375e-02 2.98e+00 4.22e+07  -6.0 1.14e+03    -  1.02e-03 3.49e-02h  3
 124 -4.5759816e-02 2.89e+00 4.18e+07  -6.0 1.09e+03    -  8.79e-02 2.71e-02h  3
 125 -4.6063014e-02 2.77e+00 4.00e+07  -6.0 1.10e+03    -  4.23e-02 4.20e-02h  2
 126 -4.6661143e-02 2.56e+00 3.22e+07  -6.0 3.32e+02  -3.3 2.84e-02 7.65e-02H  1
 127 -4.6661777e-02 2.56e+00 3.56e+07  -6.0 2.97e+02  -3.7 8.50e-02 7.31e-05h  1
 128 -4.6736547e-02 2.54e+00 3.52e+07  -6.0 2.01e+03  -4.2 6.30e-03 9.66e-03h  1
 129r-4.6736547e-02 2.54e+00 1.00e+03  -0.4 0.00e+00    -  0.00e+00 3.04e-07R  4
iter    objective    inf_pr   inf_du lg(mu)  ||d||  lg(rg) alpha_du alpha_pr  ls
 130r-4.6752146e-02 2.54e+00 4.77e+03  -0.4 4.56e+03    -  2.86e-05 4.86e-06f  1
 131 -4.6759113e-02 2.54e+00 5.14e+00  -6.0 8.52e+01    -  1.14e-04 6.99e-04h  1
 132 -4.6759950e-02 2.54e+00 6.65e+00  -6.0 7.63e+01    -  6.63e-04 1.28e-04f  1
 133 -4.6759938e-02 2.54e+00 4.04e+03  -6.0 1.71e+02    -  9.58e-05 3.16e-06h  2
 134r-4.6759938e-02 2.54e+00 1.00e+03  -0.4 0.00e+00    -  0.00e+00 4.68e-07R  4
 135r-4.6760210e-02 2.54e+00 3.00e+03  -0.4 9.82e+03    -  2.74e-07 4.10e-08f  1
 136 -4.6760235e-02 2.54e+00 5.29e+05  -6.0 7.58e+01    -  7.68e-03 3.59e-06h  2
 137 -4.6760138e-02 2.54e+00 4.17e+06  -6.0 1.57e+02    -  5.03e-06 3.96e-05h  1
 138 -4.6758463e-02 2.53e+00 4.18e+06  -6.0 1.66e+02    -  5.15e-03 5.05e-04h  1
 139 -4.6756015e-02 2.53e+00 4.18e+06  -6.0 1.65e+02    -  5.54e-04 8.00e-04h  1
iter    objective    inf_pr   inf_du lg(mu)  ||d||  lg(rg) alpha_du alpha_pr  ls
 140 -4.6748910e-02 2.52e+00 4.16e+06  -6.0 1.77e+02    -  8.20e-03 4.38e-03h  1
 141 -4.6747486e-02 2.52e+00 4.16e+06  -6.0 2.16e+02    -  6.84e-03 4.25e-04h  1
 142 -4.6746997e-02 2.52e+00 4.16e+06  -6.0 2.06e+02    -  4.71e-02 1.79e-04h  1
 143 -4.6768725e-02 2.51e+00 4.16e+06  -6.0 3.07e+02    -  7.27e-03 3.03e-03h  1
 144 -4.6862168e-02 2.48e+00 1.89e+07  -6.0 3.36e+02    -  1.74e-01 1.29e-02h  1
 145 -4.7294762e-02 2.33e+00 1.49e+07  -6.0 4.25e+02    -  2.34e-02 5.96e-02h  1
 146 -4.7673837e-02 2.21e+00 2.13e+07  -6.0 4.05e+02    -  1.48e-01 5.03e-02h  1
 147 -4.8041355e-02 2.09e+00 2.72e+07  -6.0 4.28e+02    -  1.78e-01 5.22e-02h  1
 148 -4.8078185e-02 2.08e+00 2.77e+07  -6.0 8.53e+02    -  1.16e-02 4.73e-03h  1
 149 -4.8782519e-02 1.90e+00 1.80e+07  -6.0 8.66e+02    -  3.87e-03 8.61e-02f  1
iter    objective    inf_pr   inf_du lg(mu)  ||d||  lg(rg) alpha_du alpha_pr  ls
 150r-4.8782519e-02 1.90e+00 1.00e+03  -0.5 0.00e+00    -  0.00e+00 7.07e-08R  2
 151r-4.8806306e-02 1.90e+00 2.39e+03  -0.5 4.14e+03    -  5.08e-06 4.24e-06f  1
 152 -4.8809056e-02 1.90e+00 5.10e+04  -6.0 9.42e+01    -  2.36e-04 8.07e-04h  1
 153 -4.8809031e-02 1.90e+00 7.20e+04  -6.0 3.08e+02    -  8.15e-04 3.49e-06f  2
 154 -4.8807645e-02 1.90e+00 1.31e+06  -6.0 2.35e+02    -  1.74e-02 4.58e-04h  1
 155 -4.8806656e-02 1.90e+00 1.31e+06  -6.0 2.19e+02    -  3.96e-04 4.92e-04h  1
 156 -4.8809107e-02 1.90e+00 1.30e+06  -6.0 3.10e+02    -  3.97e-04 4.22e-04h  1
 157 -4.8810292e-02 1.90e+00 1.35e+06  -6.0 3.15e+02    -  8.79e-04 2.83e-04h  1
 158 -4.8813827e-02 1.90e+00 1.37e+06  -6.0 3.19e+02    -  1.00e-03 7.52e-04h  1
 159 -4.8822026e-02 1.89e+00 1.40e+06  -6.0 2.87e+02    -  2.24e-03 1.85e-03h  1
iter    objective    inf_pr   inf_du lg(mu)  ||d||  lg(rg) alpha_du alpha_pr  ls
 160 -4.8864835e-02 1.87e+00 9.32e+05  -6.0 2.66e+02    -  2.89e-03 1.01e-02h  1
 161 -4.8911224e-02 1.85e+00 2.47e+06  -6.0 1.77e+02    -  4.52e-02 1.07e-02h  1
 162 -4.9286932e-02 1.69e+00 1.04e+06  -6.0 1.76e+02    -  1.19e-02 9.15e-02h  1
 163 -4.9538223e-02 1.54e+00 3.99e+06  -6.0 1.31e+02    -  4.22e-03 8.68e-02h  1
 164 -4.9569167e-02 1.51e+00 4.43e+06  -6.0 1.05e+02    -  7.51e-03 2.19e-02h  1
 165 -4.9595521e-02 1.48e+00 3.75e+06  -6.0 9.74e+01    -  3.79e-02 2.18e-02h  1
 166 -4.9782142e-02 1.39e+00 4.79e+06  -6.0 1.00e+02    -  2.16e-02 5.69e-02h  1
 167 -5.0215885e-02 1.18e+00 7.22e+06  -6.0 8.81e+01    -  6.02e-02 1.61e-01h  1
 168 -5.0293952e-02 1.12e+00 8.24e+06  -6.0 8.35e+01    -  4.31e-03 5.11e-02h  1
 169 -5.0627647e-02 5.80e-01 9.30e+06  -6.0 5.74e+01    -  7.06e-02 4.72e-01H  1
iter    objective    inf_pr   inf_du lg(mu)  ||d||  lg(rg) alpha_du alpha_pr  ls
 170 -5.0908478e-02 4.91e-01 2.98e+06  -6.0 9.85e+01    -  1.74e-03 1.51e-01h  1
 171 -5.1185125e-02 4.51e-01 2.24e+06  -6.0 8.84e+01    -  2.31e-03 8.03e-02h  1
 172 -5.1242573e-02 4.32e-01 2.14e+06  -6.0 5.32e+01    -  3.76e-02 4.41e-02h  1
 173 -5.1476900e-02 3.52e-01 2.26e+06  -6.0 3.91e+01    -  6.78e-02 1.85e-01h  1
 174 -5.1660917e-02 2.92e-01 2.02e+06  -6.0 1.67e+01    -  2.57e-01 1.71e-01h  1
 175 -5.2586877e-02 2.04e-01 8.70e+06  -6.0 1.05e+01    -  1.35e-01 9.95e-01h  1
 176 -5.2510444e-02 2.07e-01 1.39e+07  -6.0 3.50e+01    -  1.17e-01 2.01e-01H  1
 177 -5.2454848e-02 2.55e-03 1.54e+06  -6.0 1.40e+00    -  2.05e-01 1.00e+00h  1
 178 -5.2479211e-02 1.42e-05 1.34e+04  -6.0 2.18e-01    -  9.66e-01 1.00e+00h  1
 179 -5.2857946e-02 1.63e-03 3.12e+03  -6.0 3.41e+00    -  7.81e-01 1.00e+00h  1
iter    objective    inf_pr   inf_du lg(mu)  ||d||  lg(rg) alpha_du alpha_pr  ls
 180 -5.4619426e-02 6.38e-02 2.40e+03  -6.0 1.84e+01    -  8.43e-02 7.68e-01h  1
 181 -5.5736134e-02 3.38e-02 1.94e+03  -6.0 1.87e+01    -  1.14e-01 5.52e-01f  1
 182 -5.8061841e-02 6.12e-02 1.14e+03  -6.0 2.33e+01    -  3.90e-01 1.00e+00h  1
 183 -5.9364948e-02 5.92e-02 9.47e+02  -6.0 3.31e+01    -  2.14e-01 3.40e-01h  1
 184 -5.9796845e-02 1.58e-01 1.26e+03  -6.0 3.22e+01    -  3.18e-02 4.06e-01f  1
 185 -6.0579463e-02 1.82e-01 1.22e+03  -6.0 2.89e+02    -  1.38e-02 2.01e-02h  1
 186 -6.0770695e-02 1.75e-01 1.52e+02  -6.0 4.42e+01    -  6.77e-01 3.52e-02h  1
 187 -6.4606590e-02 1.45e-01 1.94e+02  -6.0 1.76e+02    -  7.35e-02 2.63e-01f  1
 188 -6.5243102e-02 1.39e-01 1.94e+02  -6.0 2.01e+02    -  2.41e-02 4.75e-02h  1
 189 -6.6228205e-02 1.43e-01 1.12e+02  -6.0 1.76e+02    -  6.51e-01 9.62e-02h  1
iter    objective    inf_pr   inf_du lg(mu)  ||d||  lg(rg) alpha_du alpha_pr  ls
 190 -7.0696432e-02 1.02e+00 9.42e+01  -6.0 5.94e+02    -  1.72e-01 1.66e-01h  1
 191 -7.7916178e-02 4.35e+00 1.03e+02  -6.0 7.06e+02    -  4.49e-01 2.60e-01h  1
 192 -8.4990498e-02 7.61e+00 1.07e+02  -6.0 1.11e+03    -  3.37e-01 2.28e-01h  1
 193 -8.7919521e-02 7.41e+00 1.62e+02  -6.0 1.42e+03    -  2.76e-01 6.71e-02h  1
 194 -8.7930740e-02 7.26e+00 1.59e+02  -6.0 1.73e+01  -4.7 1.81e-02 2.03e-02h  1
 195 -8.8687637e-02 3.17e+00 3.09e+02  -6.0 8.68e+00  -5.2 5.21e-02 5.63e-01h  1
 196 -8.8785745e-02 3.17e+00 3.05e+02  -6.0 1.11e+02  -5.6 1.62e-02 1.50e-02h  1
 197 -8.9280599e-02 2.72e+00 1.84e+02  -6.0 5.43e+01  -6.1 7.80e-04 1.54e-01h  1
 198 -8.9425468e-02 2.72e+00 1.77e+02  -6.0 1.36e+02  -6.6 6.99e-03 9.30e-03h  1
 199 -9.0172647e-02 3.05e+00 1.07e+02  -6.0 2.30e+03    -  2.65e-04 2.04e-02f  1
iter    objective    inf_pr   inf_du lg(mu)  ||d||  lg(rg) alpha_du alpha_pr  ls
 200 -9.0590756e-02 3.19e+00 4.46e+02  -6.0 1.53e+02  -7.1 1.46e-01 2.08e-02f  1
 201 -9.1548007e-02 3.57e+00 8.10e+02  -6.0 9.44e+02    -  2.36e-01 3.98e-02h  1
 202 -9.6904679e-02 1.46e+01 4.70e+02  -6.0 1.23e+03    -  1.74e-01 2.70e-01h  1
 203 -1.0007756e-01 1.38e+01 3.40e+02  -6.0 2.35e+02  -7.5 1.38e-01 1.97e-01h  1
 204 -1.0159453e-01 1.28e+01 2.98e+02  -6.0 1.58e+03  -8.0 8.17e-02 9.47e-02h  1
 205 -1.0431836e-01 1.15e+01 2.81e+02  -6.0 2.28e+03    -  2.22e-01 1.01e-01h  1
 206 -1.0688262e-01 1.08e+01 1.45e+02  -6.0 2.10e+02  -7.6 2.18e-01 2.83e-01h  1
 207 -1.0890924e-01 7.80e+00 3.02e+02  -6.0 3.55e+02  -8.1 4.29e-01 2.90e-01h  1
 208 -1.1084460e-01 4.26e+00 6.36e+02  -6.0 1.94e+02  -7.6 1.56e-02 4.74e-01h  1
Error in an AMPL evaluation. Run with "halt_on_ampl_error yes" to see details.
Warning: Cutting back alpha due to evaluation error
 209 -1.1152679e-01 3.58e+00 8.19e+01  -6.0 2.98e+02  -8.1 5.18e-01 1.53e-01h  2
iter    objective    inf_pr   inf_du lg(mu)  ||d||  lg(rg) alpha_du alpha_pr  ls
 210 -1.1296321e-01 2.44e+00 1.03e+02  -6.0 5.96e+02  -8.6 3.81e-01 2.59e-01h  1
 211 -1.1466361e-01 2.57e+00 2.27e+02  -6.0 1.42e+03  -9.1 6.18e-02 2.15e-01h  1
 212 -1.1507209e-01 2.38e+00 8.67e+01  -6.0 8.41e+02  -8.7 1.63e-01 8.78e-02h  1
 213 -1.1665524e-01 3.79e+00 2.04e+02  -6.0 1.38e+03  -9.1 1.75e-01 2.64e-01h  1
 214 -1.1761716e-01 2.96e+00 4.73e+01  -6.0 5.15e+02  -8.7 3.66e-01 2.97e-01h  1
 215 -1.2082141e-01 1.22e+01 8.83e+02  -6.0 1.23e+03  -9.2 1.06e-01 6.17e-01h  1
 216 -1.2171464e-01 1.13e+01 8.55e+02  -6.0 2.02e+03  -9.7 9.42e-02 1.28e-01h  1
 217 -1.2327945e-01 8.12e+00 1.20e+03  -6.0 9.32e+02  -9.2 1.52e-01 4.33e-01h  1
 218 -1.2395643e-01 7.50e+00 1.37e+03  -6.0 2.29e+03  -9.7 4.76e-02 8.76e-02h  1
 219 -1.2447444e-01 6.36e+00 1.06e+03  -6.0 1.05e+03  -9.3 1.91e-01 1.59e-01h  1
iter    objective    inf_pr   inf_du lg(mu)  ||d||  lg(rg) alpha_du alpha_pr  ls
 220 -1.2703206e-01 1.77e+01 7.57e+02  -6.0 3.49e+03  -9.8 3.51e-02 2.48e-01h  1
 221 -1.2799704e-01 1.89e+01 2.01e+03  -6.0 4.78e+03 -10.2 4.17e-02 3.42e-01h  1
 222 -1.2898045e-01 9.75e+00 1.32e+03  -6.0 4.35e+02  -8.9 4.34e-01 4.86e-01h  1
 223 -1.3065585e-01 1.04e+01 2.31e+03  -6.0 1.67e+03  -9.4 9.68e-02 2.98e-01h  1
 224 -1.3129012e-01 7.99e+00 2.27e+03  -6.0 2.11e+03  -9.9 2.38e-01 2.74e-01h  1
 225 -1.3225970e-01 5.72e+00 1.43e+03  -6.0 9.41e+02  -9.4 3.43e-01 3.38e-01h  1
 226 -1.3335922e-01 4.91e+01 8.58e+03  -6.0 3.82e+03  -9.9 1.49e-01 3.91e-01h  1
 227 -1.3344303e-01 4.57e+01 5.17e+03  -6.0 1.06e+03  -9.5 1.16e-01 7.18e-02h  1
 228 -1.3366966e-01 4.38e+01 1.08e+03  -6.0 5.65e+03 -10.0 1.23e-01 7.08e-02h  1
 229 -1.3380098e-01 4.05e+01 1.08e+04  -6.0 9.82e+03    -  5.14e-04 1.28e-01h  1
iter    objective    inf_pr   inf_du lg(mu)  ||d||  lg(rg) alpha_du alpha_pr  ls
 230 -1.3380440e-01 4.04e+01 1.08e+04  -6.0 4.17e+04  -7.7 2.45e-04 4.46e-04h  1
 231 -1.3377676e-01 4.11e+01 1.11e+04  -6.0 6.60e+04    -  1.39e-08 3.03e-03h  1
 232 -1.3424672e-01 2.46e+01 2.48e+04  -6.0 4.25e+02  -8.2 1.50e-01 4.18e-01h  1
 233 -1.3455930e-01 2.09e+01 3.62e+04  -6.0 2.76e+02  -8.7 1.01e-01 1.50e-01h  1
 234 -1.3470356e-01 2.01e+01 1.76e+07  -6.0 2.36e+02  -8.3 1.68e-04 3.86e-02h  1
 235 -1.3496404e-01 6.14e-01 4.10e+03  -6.0 5.65e+01  -8.7 3.57e-02 1.00e+00h  1
 236 -1.3521505e-01 4.88e-01 1.44e+02  -6.0 1.77e+02  -9.2 7.24e-01 1.00e+00h  1
 237 -1.3571726e-01 1.06e+00 1.11e+02  -6.0 8.20e+02  -9.7 2.35e-01 2.30e-01h  1
 238 -1.3575493e-01 1.92e+00 1.16e+02  -6.0 5.38e+03 -10.2 1.06e-01 4.05e-02h  1
 239 -1.3586297e-01 1.77e+00 3.70e+01  -6.0 3.38e+03    -  4.18e-01 1.52e-01h  1
iter    objective    inf_pr   inf_du lg(mu)  ||d||  lg(rg) alpha_du alpha_pr  ls
 240 -1.3612236e-01 1.23e+00 1.42e+01  -6.0 6.00e+02  -9.7 4.35e-01 5.71e-01h  1
 241 -1.3637133e-01 1.24e+00 8.43e+00  -6.0 4.38e+03    -  3.85e-01 4.08e-01h  1
 242 -1.3647022e-01 1.15e+00 7.41e+01  -6.0 9.70e+03    -  6.03e-01 1.16e-01h  1
 243 -1.3672056e-01 2.29e+00 5.02e+01  -6.0 1.16e+04    -  3.35e-01 3.30e-01h  1
 244r-1.3672056e-01 2.29e+00 9.99e+02   0.3 0.00e+00    -  0.00e+00 3.78e-07R  5
 245r-1.3670715e-01 2.29e+00 3.54e+04   0.3 4.49e+06    -  8.45e-07 1.65e-06f  1
 246 -1.3681664e-01 2.15e+00 2.26e+02  -6.0 2.15e+04    -  1.63e-01 6.48e-02h  1
 247 -1.3722153e-01 1.72e+00 1.49e+02  -6.0 5.53e+03    -  7.59e-02 3.10e-01h  1
 248 -1.3740162e-01 1.60e+00 1.15e+02  -6.0 5.09e+03    -  4.24e-01 2.42e-01h  1
 249 -1.3744830e-01 1.60e+00 1.62e+02  -6.0 1.50e+03    -  5.01e-01 2.00e-01h  3
iter    objective    inf_pr   inf_du lg(mu)  ||d||  lg(rg) alpha_du alpha_pr  ls
 250 -1.3729806e-01 1.74e+00 1.09e+05  -6.0 1.45e+03    -  6.04e-01 5.00e-01H  1
 251 -1.3760801e-01 1.36e+00 9.20e+03  -6.0 1.92e+03    -  9.46e-01 8.28e-01H  1
 252 -1.3763897e-01 9.80e-01 6.62e+03  -6.0 6.57e+02    -  1.00e+00 2.80e-01h  1
 253 -1.3777475e-01 8.74e-01 5.41e+02  -6.0 4.23e+02    -  6.70e-01 1.00e+00h  1
 254 -1.3790841e-01 6.72e-01 4.41e+03  -6.0 1.88e+02    -  1.00e+00 5.27e-01h  1
 255 -1.3812617e-01 9.75e-01 5.47e+03  -6.0 2.15e+02    -  4.41e-01 8.50e-01h  1
 256 -1.3822519e-01 2.90e-01 5.07e+06  -6.0 1.42e+02    -  4.20e-03 1.00e+00h  1
 257 -1.3807688e-01 3.09e-01 3.90e+02  -6.0 1.38e+02    -  1.00e+00 1.00e+00h  1
 258 -1.3824205e-01 1.22e+00 2.62e+02  -6.0 4.74e+02    -  3.07e-01 3.27e-01h  1
 259 -1.3823008e-01 2.05e-01 4.19e-01  -6.0 5.97e+01    -  1.00e+00 1.00e+00h  1
iter    objective    inf_pr   inf_du lg(mu)  ||d||  lg(rg) alpha_du alpha_pr  ls
 260 -1.3826545e-01 4.78e-01 4.58e+00  -6.0 3.40e+02    -  3.75e-01 3.10e-01h  1
 261 -1.3833244e-01 1.06e-01 9.02e+00  -6.0 2.04e+02    -  5.36e-01 1.00e+00h  1
 262 -1.3830590e-01 6.30e-03 5.21e-02  -6.0 1.28e+01  -7.5 1.00e+00 1.00e+00h  1
 263 -1.3829485e-01 9.20e-01 5.99e+00  -6.0 3.76e+02    -  5.58e-01 4.68e-01h  1
 264 -1.3825720e-01 1.29e-01 6.86e+00  -6.0 1.76e+02    -  8.36e-01 1.00e+00h  1
 265 -1.3828353e-01 3.70e-02 9.55e-02  -6.0 3.56e+01  -8.0 1.00e+00 1.00e+00h  1
 266 -1.3826183e-01 1.07e+00 4.87e+00  -6.0 1.12e+03    -  1.66e-01 1.68e-01h  1
 267 -1.3821016e-01 1.30e+00 7.25e+00  -6.0 2.13e+02    -  1.00e+00 1.00e+00h  1
 268 -1.3820804e-01 1.23e+00 5.00e+01  -6.0 4.11e+02    -  2.98e-01 2.01e-01h  1
 269 -1.3820603e-01 1.42e+00 9.32e+00  -6.0 3.11e+02    -  1.00e+00 1.00e+00h  1
iter    objective    inf_pr   inf_du lg(mu)  ||d||  lg(rg) alpha_du alpha_pr  ls
 270 -1.3833600e-01 1.01e+00 4.20e+02  -6.0 1.92e+02  -8.5 4.71e-01 1.00e+00h  1
 271 -1.3834900e-01 9.67e-01 5.08e+02  -6.0 2.59e+02  -8.9 1.00e+00 5.11e-01h  1
 272 -1.3833276e-01 1.52e+00 1.83e+03  -6.0 2.64e+02  -9.4 4.40e-01 8.59e-01h  1
 273 -1.3829415e-01 2.25e-01 4.83e+04  -6.0 1.54e+02  -9.9 5.90e-02 1.00e+00h  1
 274 -1.3830761e-01 4.36e-01 1.82e+02  -6.0 1.28e+02  -9.5 1.00e+00 1.00e+00h  1
 275 -1.3829519e-01 3.33e-01 7.96e+00  -6.0 1.04e+02  -9.0 7.23e-01 1.00e+00h  1
 276 -1.3829177e-01 3.23e+00 2.24e+01  -6.0 3.44e+02  -9.5 3.20e-01 5.54e-01H  1
 277 -1.3817202e-01 2.02e+00 1.45e+01  -6.0 1.59e+02    -  3.53e-01 1.00e+00h  1
 278 -1.3814728e-01 2.18e+00 1.35e+01  -6.0 1.57e+03 -10.0 7.68e-02 4.43e-02h  2
 279 -1.3811410e-01 1.65e+00 3.74e+01  -6.0 1.95e+01  -7.8 1.00e+00 3.70e-01h  2
iter    objective    inf_pr   inf_du lg(mu)  ||d||  lg(rg) alpha_du alpha_pr  ls
 280 -1.3807155e-01 1.64e+00 1.32e+01  -6.0 1.87e+01  -8.2 5.15e-01 8.87e-01h  1
 281 -1.3806483e-01 1.71e+00 1.42e+01  -6.0 1.44e+04    -  1.29e-02 9.82e-03h  1
 282 -1.3816054e-01 2.26e+00 9.80e+00  -6.0 1.21e+03    -  3.38e-01 3.49e-01h  2
 283 -1.3810868e-01 1.29e+00 9.38e+00  -6.0 4.56e+02    -  1.00e+00 4.83e-01h  1
 284 -1.3803576e-01 2.20e+00 1.55e+01  -6.0 4.99e+02    -  1.00e+00 6.93e-01h  1
 285 -1.3795301e-01 4.47e-01 9.03e+00  -6.0 1.53e+02    -  1.00e+00 1.00e+00h  1
 286 -1.3801066e-01 1.06e-01 2.19e+00  -6.0 1.46e+01  -8.7 7.84e-01 1.00e+00h  1
 287 -1.3801292e-01 2.50e-01 2.76e-02  -6.0 1.27e+02    -  1.00e+00 1.00e+00h  1
 288 -1.3801238e-01 4.24e-04 4.79e-05  -6.0 4.73e+00    -  1.00e+00 1.00e+00h  1
 289 -1.3801255e-01 1.68e-05 1.46e-04  -6.0 9.58e-01    -  1.00e+00 1.00e+00h  1
iter    objective    inf_pr   inf_du lg(mu)  ||d||  lg(rg) alpha_du alpha_pr  ls
 290 -1.3801255e-01 1.07e-09 8.25e-09  -6.0 7.61e-03    -  1.00e+00 1.00e+00h  1
 291 -1.3855156e-01 6.50e+00 1.16e+01  -7.5 3.73e+03    -  1.71e-01 1.73e-01f  1
 292 -1.3874254e-01 7.36e+00 2.56e+01  -7.5 4.03e+03    -  3.42e-02 7.08e-02h  1
 293 -1.3912806e-01 1.01e+01 2.12e+01  -7.5 2.55e+03    -  3.45e-01 2.32e-01h  1
 294 -1.3929692e-01 1.07e+01 1.86e+01  -7.5 2.43e+03    -  1.61e-01 1.81e-01h  1
 295 -1.3930329e-01 1.06e+01 7.72e+01  -7.5 1.63e+02  -9.2 5.27e-01 1.14e-02h  1
 296 -1.3983034e-01 3.40e+01 3.79e+01  -7.5 2.63e+03    -  7.78e-03 6.32e-01h  1
 297 -1.3988177e-01 2.65e+01 2.95e+01  -7.5 1.79e+03    -  2.22e-01 2.22e-01h  1
 298 -1.3988497e-01 2.59e+01 2.57e+01  -7.5 2.02e+02  -7.9 6.07e-01 2.04e-02h  1
 299 -1.3991539e-01 2.28e+01 2.26e+01  -7.5 2.19e+03    -  1.36e-01 1.24e-01h  1
iter    objective    inf_pr   inf_du lg(mu)  ||d||  lg(rg) alpha_du alpha_pr  ls
 300 -1.3994128e-01 1.94e+01 1.86e+01  -7.5 1.40e+03    -  4.47e-02 1.54e-01h  1
 301 -1.3994558e-01 1.84e+01 2.02e+02  -7.5 2.21e+01  -8.3 1.00e+00 5.01e-02f  1
 302 -1.3998495e-01 1.07e+01 1.11e+02  -7.5 3.80e+01  -8.8 4.62e-01 4.20e-01h  1
 303 -1.4002525e-01 6.11e+00 3.68e+01  -7.5 5.85e+01  -9.3 6.29e-01 4.28e-01h  1
 304 -1.4014494e-01 3.69e+01 7.74e+01  -7.5 1.63e+03    -  8.15e-02 8.63e-01h  1
 305 -1.4015725e-01 3.22e+01 7.36e+01  -7.5 1.20e+03    -  1.25e-01 1.43e-01h  1
 306 -1.4023885e-01 9.40e+00 2.35e+02  -7.5 7.13e+02    -  4.91e-01 1.00e+00h  1
 307 -1.4029508e-01 4.91e+00 5.19e+02  -7.5 3.37e+01  -9.8 1.98e-01 4.78e-01h  1
 308 -1.4030733e-01 4.35e+00 1.01e+03  -7.5 9.54e+01 -10.3 6.76e-01 1.15e-01h  1
 309 -1.4033546e-01 3.23e+00 1.31e+03  -7.5 2.38e+02 -10.7 7.11e-01 2.63e-01h  1
iter    objective    inf_pr   inf_du lg(mu)  ||d||  lg(rg) alpha_du alpha_pr  ls
 310 -1.4039370e-01 1.67e+00 7.87e+02  -7.5 3.93e+02 -11.2 6.55e-01 5.45e-01h  1
 311 -1.4043985e-01 2.48e+00 6.01e+01  -7.5 1.17e+03    -  2.32e-01 3.48e-01h  1
 312 -1.4044760e-01 2.95e+00 5.83e+02  -7.5 4.82e+03    -  3.21e-01 4.47e-02h  1
 313 -1.4044882e-01 2.92e+00 1.95e+03  -7.5 1.15e+04    -  1.28e-02 9.31e-03h  1
 314 -1.4048256e-01 3.29e+01 3.49e+03  -7.5 1.62e+03    -  1.61e-01 1.00e+00h  1
 315 -1.4052713e-01 7.76e+01 4.43e+02  -7.5 2.40e+03    -  2.58e-01 1.00e+00h  1
 316 -1.4051971e-01 2.69e+01 4.13e+02  -7.5 4.22e+02    -  1.96e-01 6.63e-01h  1
 317 -1.4051890e-01 6.95e-01 1.83e+02  -7.5 4.97e+01    -  5.60e-01 1.00e+00h  1
 318 -1.4054158e-01 2.06e+01 1.45e+02  -7.5 1.20e+03    -  8.40e-02 1.00e+00h  1
 319 -1.4057352e-01 6.47e+01 1.45e+02  -7.5 2.57e+03    -  4.64e-02 7.70e-01h  1
iter    objective    inf_pr   inf_du lg(mu)  ||d||  lg(rg) alpha_du alpha_pr  ls
 320 -1.4056094e-01 6.42e+01 7.82e+01  -7.5 4.49e+03    -  6.21e-01 1.89e-01h  1
 321 -1.4054621e-01 5.19e+01 6.55e+01  -7.5 2.35e+03    -  3.01e-03 3.85e-01h  1
 322 -1.4055673e-01 1.06e+01 9.74e+00  -7.5 7.82e+02    -  8.53e-01 1.00e+00h  1
 323 -1.4058524e-01 5.99e+01 1.07e+02  -7.5 4.12e+03    -  3.78e-01 4.49e-01h  1
 324 -1.4060560e-01 5.07e+01 2.32e+02  -7.5 1.66e+03    -  2.63e-01 1.00e+00h  1
 325 -1.4061003e-01 3.47e+00 2.61e+02  -7.5 3.70e+02    -  4.07e-02 1.00e+00h  1
 326 -1.4061267e-01 7.56e-01 4.00e+00  -7.5 1.95e+02 -10.8 3.08e-01 1.00e+00h  1
 327 -1.4061965e-01 5.42e+00 2.18e+01  -7.5 5.28e+02 -11.3 1.00e+00 1.00e+00h  1
 328 -1.4061988e-01 4.14e+00 1.66e+01  -7.5 6.54e+01    -  1.00e+00 2.38e-01h  1
 329 -1.4062011e-01 8.79e-03 4.55e-01  -7.5 2.09e+01    -  1.00e+00 1.00e+00h  1
iter    objective    inf_pr   inf_du lg(mu)  ||d||  lg(rg) alpha_du alpha_pr  ls
 330 -1.4062000e-01 1.15e-03 8.92e-03  -7.5 7.57e+00    -  1.00e+00 1.00e+00h  1
 331 -1.4062001e-01 2.05e-06 1.44e-05  -7.5 3.18e-01    -  1.00e+00 1.00e+00h  1
 332 -1.4062001e-01 1.97e-09 1.31e-08  -7.5 9.91e-03    -  1.00e+00 1.00e+00h  1
 333 -1.4062327e-01 9.23e-02 2.40e+00  -9.0 2.59e+02    -  2.88e-01 3.04e-01h  1
 334 -1.4063017e-01 2.10e+01 7.95e+01  -9.0 1.17e+05    -  2.17e-02 8.78e-03h  1
 335 -1.4063789e-01 2.77e+01 1.19e+02  -9.0 3.62e+03    -  1.86e-01 2.32e-01h  1
 336 -1.4064253e-01 2.74e+01 1.26e+02  -9.0 4.34e+03    -  2.91e-01 1.62e-01h  1
 337 -1.4064965e-01 4.42e+01 1.33e+02  -9.0 3.43e+03    -  3.20e-01 3.66e-01h  1
 338 -1.4065355e-01 4.07e+01 2.54e+01  -9.0 1.55e+03    -  1.00e-02 8.19e-01h  1
 339 -1.4065068e-01 1.55e-01 7.70e+00  -9.0 1.02e+02    -  4.01e-02 1.00e+00h  1
iter    objective    inf_pr   inf_du lg(mu)  ||d||  lg(rg) alpha_du alpha_pr  ls
 340 -1.4065130e-01 8.47e-02 7.37e-01  -9.0 6.42e+01    -  1.00e+00 1.00e+00h  1
 341 -1.4065129e-01 2.12e-02 8.98e-02  -9.0 3.22e+01    -  1.00e+00 1.00e+00h  1
 342 -1.4065129e-01 6.75e-08 1.75e-05  -9.0 3.78e-02    -  1.00e+00 1.00e+00h  1
 343 -1.4065129e-01 2.88e-10 2.60e-12  -9.0 2.80e-05    -  1.00e+00 1.00e+00h  1

Number of Iterations....: 343

                                   (scaled)                 (unscaled)
Objective...............:  -1.4065128916509301e-01   -1.4065128916509301e-01
Dual infeasibility......:   2.6010305020918167e-12    2.6010305020918167e-12
Constraint violation....:   2.8783824976286176e-10    2.8783824976286176e-10
Complementarity.........:   9.0909098742474860e-10    9.0909098742474860e-10
Overall NLP error.......:   9.0909098742474860e-10    9.0909098742474860e-10


Number of objective function evaluations             = 488
Number of objective gradient evaluations             = 341
Number of equality constraint evaluations            = 489
Number of inequality constraint evaluations          = 489
Number of equality constraint Jacobian evaluations   = 353
Number of inequality constraint Jacobian evaluations = 353
Number of Lagrangian Hessian evaluations             = 343
Total CPU secs in IPOPT (w/o function evaluations)   =    212.869
Total CPU secs in NLP function evaluations           =      5.644

EXIT: Optimal Solution Found.
